17	4
16	27	23	38	
0	0	0	0	0	3	2	3	4	
9	5	0	0	2	3	5	9	17	
4	0	5	0	9	3	10	13	14	
5	4	0	0	0	3	6	7	8	
7	3	2	7	0	1	6	
25	6	2	0	0	1	17	
75	0	0	0	3	1	17	
225	0	0	0	9	1	17	
200	7	0	5	3	3	11	14	17	
250	0	1	0	0	3	12	16	17	
150	0	4	4	9	2	15	17	
125	0	1	0	0	1	17	
10	0	0	9	0	2	17	17	
3	8	4	0	7	3	17	17	17	
6	0	5	2	7	1	17	
9	0	0	2	0	1	17	
0	0	0	0	0	0	
